50
9544

611 763
318 463
603 423
316 39
358 333
889 985
108 305
443 296
740 882
590 195
481 550
415 14
481 942
521 718
771 837
988 177
73 60
106 775
878 464
287 872
604 793
156 103
808 724
763 662
847 904
876 962
427 75
993 813
584 649
225 850
45 26
591 944
717 986
325 526
991 980
227 345
404 607
528 342
340 331
996 155
274 501
195 627
977 168
153 278
823 59
554 671
966 892
378 448
61 671
443 832
